10
0, 633, 296, 556, 434, 254, 283, 161, 780, 213
633, 0, 615, 416, 909, 379, 718, 793, 265, 805
296, 615, 0, 346, 294, 334, 577, 356, 840, 282
556, 416, 346, 0, 612, 404, 785, 672, 680, 622
434, 909, 294, 612, 0, 594, 693, 367, 1125, 251
254, 379, 334, 404, 594, 0, 393, 415, 541, 439
283, 718, 577, 785, 693, 393, 0, 336, 770, 445
161, 793, 356, 672, 367, 415, 336, 0, 941, 116
780, 265, 840, 680, 1125, 541, 770, 941, 0, 979
213, 805, 282, 622, 251, 439, 445, 116, 979, 0
